2764
8524
528
4235
1860
2031
5548
1396
870
10116
2096
6526
1895
4605
7197
3656
4996
8978
1970
2583
4242
7944
3269
2551
1128
5111
1379
7026
8872
3216
9186
9165
2968
6418
9653
5164
7970
6868
6386
4107
7394
3885
3830
1697
2532
646
4842
3306
9477
2419
